66,82,100
95
8
129
107
79
0,4,28,32,41,51,84,89,105,108,109,119,125,144
36,134
145
137,146
9,63,85
142
69,136
93
68
10
122
13,55,74
91,115
37,98,101
87
59
57,118
38,48
86,152
146
18
133
26,61,69
48,154
34,56,65,67
45,58,107,150
24,95
137
100
48,79,95,96
20
43
23
35,60
64
111
52,68
48,68,69,72,112,118,122,146,154
53,83
6,94
14,30
59,68
16,44
33
49
118
31,47,70,71,99
58
88
69
5,130
45
13,55,74,117
120
128
143
82,100
11,12,22,39,40,73,76,102,104,121,138,139,140,153
19,127
150
82,141
154
90,148
15,61
122,147
106,131
27
48,106
64,111
97,133
148
49,113
62,127
46,80
103
149
